p edge 889 2914
e 1 8
e 1 19
e 1 36
e 2 3
e 2 4
e 2 6
e 2 8
e 2 12
e 2 16
e 2 20
e 2 21
e 3 4
e 3 8
e 3 11
e 3 16
e 3 20
e 3 23
e 3 24
e 3 60
e 5 88
e 5 118
e 5 164
e 5 306
e 5 369
e 5 447
e 5 608
e 5 657
e 6 8
e 6 28
e 6 48
e 7 9
e 7 16
e 7 18
e 7 26
e 8 9
e 8 11
e 8 17
e 8 18
e 8 19
e 8 20
e 8 21
e 8 23
e 8 26
e 8 27
e 8 30
e 8 32
e 8 33
e 8 34
e 8 37
e 8 39
e 8 40
e 8 42
e 8 44
e 8 45
e 8 46
e 9 16
e 9 20
e 9 32
e 9 34
e 9 49
e 9 55
e 9 58
e 9 59
e 9 88
e 9 117
e 10 23
e 12 50
e 13 16
e 13 28
e 13 33
e 13 41
e 13 64
e 13 71
e 13 78
e 13 95
e 13 96
e 13 127
e 13 163
e 13 166
e 13 190
e 13 196
e 13 207
e 13 230
e 14 20
e 14 47
e 14 55
e 14 56
e 14 63
e 14 88
e 14 98
e 14 110
e 15 20
e 16 60
e 18 34
e 20 24
e 20 25
e 20 33
e 20 66
e 20 79
e 21 33
e 21 37
e 21 273
e 22 36
e 22 40
e 22 67
e 22 70
e 22 88
e 22 98
e 22 104
e 22 123
e 22 158
e 22 207
e 22 306
e 22 408
e 22 536
e 22 555
e 22 617
e 23 33
e 23 37
e 24 32
e 24 45
e 25 53
e 25 55
e 25 75
e 25 88
e 25 90
e 25 100
e 25 112
e 25 124
e 25 146
e 25 150
e 25 151
e 26 31
e 26 52
e 29 50
e 29 64
e 31 87
e 32 45
e 35 43
e 35 98
e 35 106
e 35 148
e 35 195
e 35 212
e 35 257
e 35 273
e 38 199
e 39 50
e 42 50
e 45 50
e 45 69
e 47 50
e 47 54
e 47 60
e 47 67
e 47 82
e 47 91
e 47 97
e 49 66
e 49 88
e 49 90
e 49 121
e 49 161
e 49 190
e 49 193
e 50 76
e 50 82
e 50 86
e 50 87
e 51 202
e 51 207
e 51 212
e 51 214
e 51 230
e 51 231
e 51 253
e 51 311
e 51 342
e 51 415
e 51 420
e 51 482
e 51 496
e 53 59
e 53 105
e 53 114
e 53 117
e 53 123
e 53 125
e 53 129
e 53 166
e 53 167
e 54 60
e 54 69
e 55 59
e 55 61
e 55 88
e 55 105
e 55 135
e 55 137
e 55 140
e 55 141
e 56 74
e 56 91
e 56 100
e 56 101
e 57 59
e 57 61
e 57 93
e 57 94
e 57 98
e 57 104
e 57 108
e 57 114
e 57 121
e 57 122
e 57 123
e 57 125
e 57 143
e 57 156
e 57 158
e 57 160
e 57 163
e 57 170
e 57 171
e 57 176
e 57 179
e 57 181
e 58 95
e 58 104
e 58 105
e 58 125
e 58 161
e 59 63
e 59 74
e 59 93
e 59 105
e 59 106
e 59 114
e 59 123
e 59 125
e 59 138
e 59 145
e 59 163
e 59 170
e 60 91
e 61 121
e 61 151
e 61 163
e 62 114
e 63 78
e 63 135
e 63 151
e 63 156
e 63 211
e 65 204
e 65 396
e 67 83
e 68 204
e 68 266
e 68 301
e 70 99
e 70 110
e 70 202
e 70 216
e 70 258
e 72 164
e 72 230
e 72 496
e 73 98
e 73 308
e 73 431
e 74 121
e 74 126
e 74 130
e 74 137
e 74 172
e 74 187
e 75 95
e 75 112
e 76 81
e 77 560
e 78 96
e 78 166
e 78 229
e 78 230
e 80 81
e 84 90
e 84 196
e 85 152
e 88 89
e 88 90
e 88 96
e 88 107
e 88 111
e 88 115
e 88 116
e 88 118
e 88 121
e 90 108
e 90 162
e 90 170
e 91 415
e 92 98
e 93 123
e 93 142
e 95 118
e 96 230
e 98 104
e 98 105
e 98 108
e 98 109
e 98 118
e 98 123
e 98 137
e 98 138
e 98 163
e 98 170
e 98 195
e 102 109
e 102 160
e 103 195
e 104 114
e 104 123
e 104 156
e 104 162
e 104 167
e 104 170
e 104 171
e 105 118
e 105 123
e 105 128
e 105 169
e 106 178
e 106 189
e 108 109
e 108 114
e 108 121
e 108 122
e 108 141
e 108 158
e 108 171
e 108 183
e 108 189
e 109 121
e 109 122
e 109 123
e 109 183
e 109 189
e 109 212
e 109 214
e 109 224
e 109 230
e 110 121
e 110 123
e 110 130
e 110 170
e 110 223
e 110 306
e 110 328
e 111 115
e 111 135
e 113 326
e 113 413
e 113 431
e 113 479
e 113 515
e 113 546
e 113 551
e 113 562
e 113 570
e 113 634
e 113 637
e 113 666
e 113 690
e 113 707
e 113 709
e 113 715
e 113 738
e 114 121
e 114 171
e 114 176
e 115 123
e 115 128
e 118 123
e 118 170
e 118 178
e 118 212
e 118 298
e 118 447
e 118 471
e 118 606
e 119 223
e 119 238
e 120 159
e 120 259
e 120 311
e 120 317
e 120 350
e 120 364
e 121 126
e 121 184
e 121 185
e 121 186
e 122 123
e 123 124
e 123 125
e 123 163
e 123 169
e 123 171
e 123 172
e 123 174
e 124 125
e 124 146
e 124 168
e 128 130
e 128 143
e 128 162
e 128 170
e 128 171
e 128 191
e 128 195
e 128 205
e 129 178
e 130 131
e 130 170
e 130 197
e 130 224
e 130 229
e 130 233
e 130 237
e 130 277
e 130 278
e 132 204
e 132 273
e 132 361
e 132 385
e 132 392
e 132 399
e 132 410
e 132 416
e 132 442
e 132 448
e 132 453
e 132 455
e 132 456
e 132 461
e 132 482
e 132 488
e 132 504
e 132 506
e 132 523
e 132 536
e 132 560
e 132 562
e 132 608
e 132 617
e 133 143
e 133 170
e 133 187
e 133 205
e 133 224
e 133 239
e 133 240
e 133 259
e 134 170
e 134 247
e 134 289
e 134 331
e 134 351
e 136 690
e 136 822
e 136 832
e 136 834
e 136 855
e 139 231
e 139 239
e 139 324
e 139 431
e 139 437
e 139 447
e 139 453
e 139 455
e 139 456
e 139 458
e 140 230
e 140 328
e 141 156
e 141 220
e 143 163
e 143 187
e 143 205
e 143 207
e 143 217
e 143 240
e 143 254
e 144 356
e 147 557
e 147 717
e 148 163
e 148 199
e 148 239
e 148 254
e 148 257
e 148 267
e 148 273
e 148 305
e 148 309
e 148 314
e 149 328
e 152 156
e 152 157
e 152 189
e 152 193
e 152 205
e 152 214
e 152 215
e 152 216
e 153 216
e 153 248
e 154 225
e 154 227
e 154 306
e 155 188
e 155 199
e 155 225
e 155 273
e 155 337
e 156 163
e 156 189
e 156 196
e 156 208
e 156 210
e 157 215
e 158 170
e 158 189
e 158 204
e 158 273
e 158 322
e 160 166
e 160 170
e 161 166
e 161 230
e 161 327
e 161 328
e 162 173
e 162 195
e 162 234
e 163 205
e 164 230
e 164 374
e 164 380
e 164 381
e 164 399
e 164 466
e 164 496
e 165 170
e 165 337
e 165 351
e 166 170
e 166 175
e 166 178
e 166 194
e 166 215
e 166 224
e 166 230
e 166 248
e 168 217
e 170 191
e 170 192
e 170 193
e 170 195
e 170 199
e 170 202
e 170 203
e 170 204
e 170 205
e 170 209
e 170 212
e 170 214
e 170 216
e 170 226
e 170 233
e 170 244
e 170 247
e 170 258
e 170 259
e 170 260
e 170 263
e 170 264
e 170 271
e 170 272
e 170 273
e 170 275
e 170 277
e 170 278
e 170 280
e 170 285
e 170 289
e 170 298
e 170 299
e 170 303
e 170 306
e 170 308
e 170 317
e 170 322
e 170 324
e 170 330
e 170 334
e 170 335
e 170 341
e 170 349
e 170 356
e 170 360
e 170 361
e 170 363
e 170 364
e 170 365
e 170 367
e 173 247
e 173 263
e 173 267
e 173 318
e 174 178
e 174 198
e 175 200
e 175 205
e 175 240
e 177 389
e 178 230
e 179 273
e 179 289
e 179 334
e 180 237
e 180 264
e 180 265
e 181 256
e 182 356
e 185 186
e 186 252
e 187 224
e 189 207
e 189 214
e 189 221
e 190 193
e 190 236
e 191 218
e 191 266
e 191 273
e 191 322
e 191 399
e 191 402
e 193 236
e 193 271
e 193 280
e 193 333
e 193 344
e 193 351
e 193 356
e 193 359
e 196 233
e 196 237
e 196 245
e 197 213
e 197 247
e 197 273
e 197 285
e 197 317
e 197 335
e 199 204
e 199 206
e 199 212
e 199 225
e 199 233
e 199 239
e 199 247
e 199 256
e 199 259
e 199 260
e 199 266
e 199 269
e 199 273
e 199 281
e 199 285
e 199 299
e 199 316
e 199 317
e 199 325
e 199 328
e 199 337
e 199 351
e 201 205
e 202 273
e 203 222
e 204 209
e 204 230
e 204 231
e 204 237
e 204 239
e 204 255
e 204 266
e 204 273
e 204 306
e 204 343
e 204 347
e 204 356
e 204 361
e 204 364
e 204 370
e 204 374
e 204 380
e 204 387
e 204 388
e 204 392
e 204 393
e 204 399
e 204 404
e 204 407
e 204 410
e 204 416
e 204 421
e 204 431
e 204 433
e 204 437
e 204 447
e 204 448
e 204 452
e 204 453
e 204 455
e 204 456
e 204 458
e 204 461
e 204 471
e 204 488
e 204 491
e 204 508
e 204 526
e 204 531
e 204 536
e 204 543
e 204 555
e 204 560
e 204 565
e 205 209
e 205 214
e 205 215
e 205 237
e 205 254
e 205 258
e 205 259
e 205 260
e 205 261
e 205 262
e 205 263
e 206 306
e 206 380
e 207 221
e 207 230
e 209 337
e 209 355
e 210 233
e 210 257
e 210 258
e 210 260
e 210 261
e 211 228
e 211 237
e 212 223
e 212 224
e 212 254
e 212 260
e 212 266
e 212 281
e 212 293
e 212 294
e 212 328
e 212 332
e 212 373
e 212 399
e 212 486
e 213 216
e 213 221
e 214 227
e 215 230
e 216 224
e 216 233
e 216 237
e 216 248
e 216 258
e 216 259
e 216 270
e 216 275
e 216 286
e 218 239
e 218 536
e 218 710
e 219 230
e 219 247
e 219 267
e 219 282
e 220 286
e 223 233
e 223 260
e 223 266
e 223 285
e 223 303
e 223 323
e 223 353
e 223 368
e 223 404
e 223 453
e 224 233
e 224 237
e 224 240
e 224 247
e 224 254
e 224 258
e 224 260
e 224 267
e 224 273
e 224 285
e 225 227
e 225 281
e 225 341
e 226 227
e 226 297
e 226 341
e 228 237
e 228 273
e 228 324
e 228 361
e 228 386
e 228 415
e 228 416
e 228 474
e 229 232
e 230 281
e 230 301
e 230 328
e 230 336
e 230 358
e 230 386
e 230 393
e 230 395
e 230 396
e 230 410
e 230 433
e 230 448
e 230 460
e 230 483
e 230 486
e 230 503
e 230 509
e 230 513
e 231 430
e 231 431
e 231 455
e 231 492
e 232 278
e 232 335
e 233 237
e 233 247
e 233 248
e 233 257
e 233 259
e 233 260
e 233 266
e 233 270
e 233 273
e 233 284
e 233 285
e 233 304
e 234 261
e 235 323
e 236 319
e 236 344
e 236 351
e 237 247
e 237 260
e 237 279
e 237 290
e 237 311
e 237 324
e 237 389
e 237 404
e 237 455
e 237 464
e 237 491
e 237 508
e 238 611
e 239 242
e 239 255
e 239 266
e 239 273
e 239 317
e 239 320
e 239 337
e 239 349
e 239 372
e 239 420
e 239 431
e 239 436
e 240 260
e 241 341
e 241 342
e 241 344
e 241 357
e 242 245
e 242 431
e 243 396
e 243 543
e 243 608
e 243 617
e 243 671
e 243 715
e 244 317
e 245 433
e 245 502
e 246 266
e 246 386
e 247 258
e 247 260
e 247 273
e 247 275
e 247 280
e 247 288
e 247 290
e 249 250
e 249 251
e 249 257
e 249 267
e 250 251
e 254 263
e 254 291
e 255 361
e 255 614
e 255 630
e 255 638
e 255 665
e 255 751
e 256 260
e 256 272
e 256 281
e 256 290
e 256 325
e 257 258
e 257 267
e 257 273
e 257 288
e 257 290
e 257 309
e 258 270
e 258 275
e 258 285
e 259 260
e 259 269
e 259 270
e 259 275
e 259 281
e 259 289
e 259 290
e 259 317
e 259 319
e 259 336
e 259 350
e 259 351
e 259 377
e 259 399
e 259 410
e 260 263
e 260 266
e 260 275
e 260 286
e 260 290
e 260 299
e 260 315
e 260 317
e 261 274
e 262 550
e 263 296
e 266 285
e 266 289
e 266 299
e 266 317
e 266 322
e 266 337
e 266 399
e 266 405
e 266 464
e 268 270
e 271 285
e 271 291
e 271 319
e 271 337
e 271 351
e 272 273
e 273 280
e 273 285
e 273 290
e 273 300
e 273 308
e 273 310
e 273 317
e 273 322
e 273 347
e 273 348
e 273 361
e 273 364
e 273 370
e 273 380
e 273 381
e 273 385
e 273 386
e 273 388
e 273 389
e 273 392
e 273 396
e 273 398
e 273 399
e 273 408
e 273 415
e 273 416
e 273 426
e 273 428
e 273 429
e 273 430
e 273 431
e 273 434
e 273 441
e 273 442
e 273 447
e 273 448
e 273 449
e 273 458
e 273 460
e 273 462
e 273 463
e 273 465
e 273 471
e 273 475
e 273 483
e 273 487
e 273 492
e 273 494
e 273 496
e 273 499
e 273 505
e 273 519
e 273 527
e 273 528
e 273 536
e 273 538
e 273 547
e 273 548
e 273 550
e 273 552
e 273 560
e 273 568
e 273 570
e 273 586
e 273 617
e 273 691
e 273 730
e 273 736
e 273 750
e 273 751
e 273 770
e 273 834
e 274 284
e 275 298
e 275 299
e 276 299
e 276 317
e 277 314
e 278 301
e 278 335
e 280 285
e 280 289
e 280 337
e 280 372
e 281 282
e 281 290
e 281 292
e 281 299
e 281 317
e 281 328
e 281 342
e 283 372
e 284 364
e 284 416
e 284 431
e 285 322
e 285 337
e 285 344
e 285 351
e 285 358
e 285 364
e 285 370
e 285 379
e 285 381
e 285 386
e 285 399
e 287 376
e 289 319
e 289 322
e 289 347
e 289 364
e 289 372
e 289 395
e 289 399
e 290 299
e 290 317
e 290 350
e 292 468
e 295 636
e 297 416
e 297 448
e 297 482
e 297 518
e 298 333
e 299 300
e 299 317
e 299 336
e 299 347
e 299 350
e 299 364
e 299 395
e 299 410
e 301 303
e 301 322
e 301 386
e 302 362
e 303 344
e 306 356
e 306 432
e 307 315
e 307 389
e 308 309
e 308 317
e 308 358
e 310 500
e 311 322
e 311 408
e 311 415
e 311 436
e 311 485
e 312 313
e 312 542
e 314 319
e 314 337
e 314 351
e 314 356
e 314 358
e 314 375
e 316 361
e 316 417
e 316 460
e 316 536
e 316 568
e 316 590
e 317 344
e 317 351
e 317 364
e 318 362
e 318 419
e 319 351
e 319 356
e 319 364
e 321 431
e 321 546
e 321 550
e 321 557
e 321 604
e 322 350
e 322 372
e 322 386
e 322 399
e 322 416
e 322 421
e 322 428
e 322 438
e 322 439
e 322 445
e 324 386
e 324 453
e 324 462
e 326 709
e 326 772
e 326 802
e 327 395
e 327 417
e 327 418
e 327 420
e 328 373
e 329 404
e 330 408
e 330 421
e 331 356
e 333 338
e 334 344
e 334 370
e 336 410
e 336 490
e 337 347
e 337 351
e 337 356
e 337 359
e 337 383
e 337 410
e 339 431
e 339 594
e 340 405
e 341 342
e 343 492
e 343 610
e 343 709
e 344 351
e 344 356
e 345 652
e 345 801
e 345 804
e 345 807
e 346 482
e 347 356
e 348 431
e 348 458
e 348 560
e 348 613
e 350 365
e 351 356
e 351 382
e 352 606
e 352 639
e 353 368
e 353 380
e 354 380
e 354 448
e 354 504
e 354 511
e 356 373
e 356 399
e 356 406
e 358 386
e 358 478
e 361 426
e 361 431
e 361 433
e 361 474
e 362 396
e 362 510
e 362 513
e 362 539
e 363 424
e 364 370
e 364 399
e 364 424
e 364 437
e 366 548
e 367 399
e 367 625
e 368 377
e 368 416
e 368 431
e 368 471
e 368 484
e 368 485
e 368 499
e 368 502
e 368 508
e 369 408
e 369 448
e 369 548
e 369 550
e 370 388
e 370 393
e 370 425
e 370 431
e 370 447
e 370 466
e 370 482
e 370 494
e 370 570
e 370 586
e 370 655
e 371 399
e 371 425
e 371 717
e 372 386
e 372 399
e 372 412
e 372 433
e 372 437
e 372 441
e 372 447
e 372 470
e 375 383
e 375 513
e 375 560
e 376 641
e 376 675
e 377 396
e 377 415
e 377 447
e 377 502
e 377 525
e 378 415
e 379 412
e 379 441
e 380 391
e 380 416
e 380 431
e 380 435
e 380 438
e 380 456
e 380 459
e 380 462
e 380 484
e 380 504
e 380 506
e 380 509
e 380 511
e 380 518
e 380 534
e 380 538
e 380 540
e 380 545
e 380 547
e 380 548
e 380 557
e 380 568
e 380 598
e 380 609
e 380 611
e 380 615
e 380 626
e 380 657
e 380 663
e 381 386
e 381 399
e 381 412
e 381 425
e 381 447
e 381 568
e 381 606
e 381 617
e 384 462
e 384 491
e 384 510
e 385 434
e 385 449
e 385 455
e 385 458
e 385 504
e 385 554
e 385 563
e 386 405
e 386 410
e 386 412
e 386 417
e 386 430
e 386 437
e 386 447
e 386 471
e 386 490
e 386 496
e 386 506
e 387 413
e 387 536
e 388 431
e 388 467
e 388 570
e 389 399
e 389 480
e 390 552
e 390 567
e 390 673
e 391 392
e 391 536
e 391 619
e 392 393
e 392 410
e 392 431
e 392 447
e 392 455
e 392 456
e 392 458
e 392 466
e 392 498
e 392 539
e 393 399
e 393 408
e 393 415
e 393 416
e 393 417
e 393 426
e 393 428
e 393 449
e 393 451
e 393 458
e 393 464
e 393 470
e 393 482
e 393 496
e 393 498
e 393 508
e 393 523
e 393 536
e 394 503
e 396 411
e 396 416
e 396 431
e 396 453
e 396 474
e 396 490
e 396 496
e 396 497
e 397 534
e 398 408
e 398 425
e 398 450
e 398 471
e 398 499
e 398 506
e 398 531
e 398 536
e 398 549
e 398 553
e 398 586
e 398 619
e 399 416
e 399 417
e 399 421
e 399 427
e 399 428
e 399 431
e 399 434
e 399 436
e 399 438
e 399 442
e 399 448
e 399 453
e 399 458
e 399 462
e 399 464
e 399 465
e 399 466
e 399 469
e 399 487
e 399 490
e 399 494
e 399 504
e 399 506
e 399 509
e 399 519
e 399 526
e 399 531
e 399 536
e 399 538
e 399 555
e 399 560
e 399 562
e 399 566
e 399 568
e 399 576
e 399 613
e 399 621
e 400 417
e 401 431
e 401 526
e 403 545
e 403 550
e 403 606
e 403 627
e 403 683
e 403 685
e 403 697
e 404 416
e 404 428
e 404 429
e 404 431
e 404 448
e 404 449
e 404 504
e 404 508
e 404 511
e 404 518
e 404 520
e 405 431
e 405 440
e 406 425
e 406 536
e 406 538
e 406 550
e 406 570
e 406 636
e 406 691
e 406 697
e 407 431
e 407 482
e 407 484
e 407 542
e 407 598
e 408 417
e 408 434
e 408 447
e 408 453
e 408 471
e 408 482
e 408 513
e 408 536
e 408 548
e 408 606
e 408 625
e 409 419
e 410 430
e 410 433
e 410 448
e 410 449
e 410 451
e 410 453
e 410 463
e 410 471
e 410 490
e 410 503
e 410 513
e 410 568
e 411 446
e 411 529
e 413 509
e 413 550
e 413 663
e 413 687
e 413 741
e 413 772
e 414 557
e 414 671
e 415 418
e 415 428
e 415 433
e 415 442
e 415 462
e 415 469
e 415 485
e 415 508
e 416 421
e 416 428
e 416 430
e 416 431
e 416 442
e 416 448
e 416 449
e 416 451
e 416 453
e 416 455
e 416 456
e 416 459
e 416 461
e 416 463
e 416 464
e 416 466
e 416 482
e 416 484
e 416 486
e 416 488
e 416 499
e 416 503
e 416 504
e 416 506
e 416 510
e 416 511
e 416 512
e 416 517
e 416 518
e 416 523
e 416 536
e 416 539
e 416 551
e 416 562
e 416 584
e 416 585
e 417 426
e 417 428
e 418 469
e 418 481
e 418 482
e 418 556
e 418 558
e 418 612
e 419 433
e 419 730
e 419 745
e 420 426
e 421 431
e 421 447
e 421 449
e 421 453
e 421 458
e 421 461
e 421 464
e 421 529
e 421 538
e 422 525
e 423 439
e 423 504
e 423 550
e 423 555
e 423 587
e 423 654
e 425 471
e 425 536
e 425 548
e 425 566
e 425 606
e 425 609
e 425 637
e 425 702
e 425 770
e 426 433
e 426 453
e 426 458
e 426 468
e 426 481
e 426 491
e 427 471
e 427 536
e 427 568
e 428 445
e 428 468
e 430 431
e 430 438
e 430 442
e 430 445
e 430 450
e 431 440
e 431 444
e 431 447
e 431 448
e 431 452
e 431 455
e 431 456
e 431 460
e 431 462
e 431 463
e 431 466
e 431 472
e 431 481
e 431 487
e 431 488
e 431 492
e 431 493
e 431 498
e 431 499
e 431 501
e 431 504
e 431 524
e 431 526
e 431 529
e 431 532
e 431 536
e 431 538
e 431 540
e 431 544
e 431 546
e 431 547
e 431 548
e 431 550
e 431 558
e 431 561
e 431 575
e 431 586
e 431 591
e 431 593
e 431 596
e 431 604
e 431 606
e 431 607
e 431 613
e 431 619
e 431 622
e 431 672
e 431 690
e 431 691
e 431 697
e 431 707
e 431 736
e 431 738
e 431 750
e 431 757
e 431 762
e 431 763
e 431 765
e 431 781
e 431 785
e 431 799
e 431 803
e 431 811
e 431 820
e 431 822
e 431 823
e 431 826
e 431 834
e 431 837
e 431 840
e 431 843
e 431 853
e 431 855
e 431 868
e 431 869
e 433 437
e 433 443
e 433 447
e 433 449
e 433 453
e 433 455
e 433 458
e 433 463
e 433 485
e 433 496
e 433 515
e 433 517
e 433 528
e 433 544
e 433 602
e 434 437
e 434 447
e 434 448
e 434 465
e 434 471
e 434 490
e 434 496
e 434 503
e 434 506
e 434 523
e 434 538
e 434 543
e 434 560
e 435 655
e 435 679
e 436 464
e 437 461
e 437 465
e 437 477
e 437 490
e 437 496
e 438 465
e 438 536
e 438 568
e 439 573
e 439 660
e 439 709
e 439 710
e 439 723
e 440 548
e 441 465
e 441 466
e 442 460
e 442 492
e 442 506
e 442 585
e 443 804
e 444 530
e 445 492
e 445 574
e 445 642
e 447 453
e 447 454
e 447 456
e 447 458
e 447 463
e 447 465
e 447 466
e 447 482
e 447 483
e 447 502
e 447 503
e 447 504
e 447 506
e 447 511
e 447 517
e 447 527
e 448 449
e 448 453
e 448 456
e 448 458
e 448 459
e 448 464
e 448 482
e 448 497
e 448 498
e 448 503
e 448 504
e 448 506
e 448 511
e 448 523
e 448 529
e 448 543
e 448 548
e 448 562
e 448 568
e 448 574
e 448 584
e 448 593
e 448 597
e 449 451
e 449 455
e 449 456
e 449 458
e 449 460
e 449 463
e 449 483
e 449 496
e 449 499
e 449 504
e 449 519
e 449 521
e 449 526
e 449 536
e 449 539
e 449 561
e 449 578
e 450 536
e 451 458
e 451 466
e 451 471
e 451 513
e 451 539
e 451 560
e 451 561
e 451 562
e 452 579
e 452 659
e 452 668
e 452 687
e 452 762
e 452 785
e 452 786
e 452 793
e 452 820
e 452 825
e 452 839
e 452 850
e 452 851
e 452 858
e 452 863
e 452 872
e 452 886
e 453 456
e 453 463
e 453 475
e 453 489
e 453 499
e 453 523
e 453 531
e 453 536
e 453 538
e 453 556
e 453 558
e 454 555
e 455 461
e 455 463
e 455 504
e 455 519
e 455 560
e 456 461
e 456 472
e 456 506
e 457 550
e 457 704
e 458 466
e 458 498
e 458 499
e 458 536
e 458 543
e 458 544
e 459 504
e 459 511
e 459 523
e 459 536
e 459 550
e 459 584
e 459 597
e 460 471
e 460 504
e 461 496
e 461 502
e 461 504
e 462 500
e 462 502
e 463 518
e 464 490
e 464 529
e 464 539
e 465 486
e 465 490
e 465 560
e 466 499
e 466 503
e 466 504
e 466 517
e 466 536
e 466 538
e 466 539
e 466 543
e 467 657
e 469 525
e 469 697
e 469 702
e 469 810
e 470 482
e 470 536
e 470 538
e 470 550
e 470 702
e 471 483
e 471 489
e 471 513
e 471 536
e 471 619
e 471 652
e 473 550
e 475 543
e 476 539
e 477 492
e 477 593
e 477 635
e 477 697
e 479 643
e 479 730
e 479 779
e 481 506
e 481 536
e 481 548
e 481 562
e 481 568
e 481 574
e 481 582
e 481 605
e 482 492
e 482 504
e 482 506
e 482 509
e 482 523
e 482 526
e 482 536
e 482 543
e 482 545
e 482 546
e 482 549
e 482 550
e 482 562
e 482 568
e 482 584
e 482 588
e 482 591
e 482 592
e 482 597
e 482 620
e 482 636
e 484 536
e 484 540
e 484 635
e 484 660
e 484 666
e 484 702
e 484 704
e 484 710
e 485 502
e 485 508
e 485 509
e 486 506
e 486 531
e 486 538
e 487 538
e 487 540
e 487 543
e 487 548
e 487 562
e 487 568
e 487 572
e 487 582
e 487 613
e 488 715
e 488 783
e 488 871
e 490 531
e 490 536
e 490 538
e 490 574
e 494 562
e 495 762
e 496 503
e 496 560
e 499 539
e 499 569
e 499 580
e 500 528
e 500 557
e 500 730
e 500 736
e 500 746
e 503 530
e 503 560
e 504 506
e 504 508
e 504 511
e 504 513
e 504 518
e 504 523
e 504 529
e 504 536
e 504 544
e 504 568
e 504 582
e 504 584
e 504 597
e 505 507
e 505 550
e 505 635
e 506 536
e 506 548
e 506 559
e 508 511
e 509 514
e 509 515
e 511 523
e 511 584
e 511 597
e 513 536
e 513 559
e 513 697
e 513 786
e 513 819
e 515 550
e 515 583
e 515 588
e 515 617
e 515 631
e 516 665
e 518 536
e 518 575
e 521 592
e 522 617
e 522 724
e 523 526
e 523 568
e 523 584
e 523 624
e 524 568
e 525 550
e 525 666
e 525 769
e 526 529
e 526 536
e 526 562
e 526 568
e 526 592
e 528 545
e 528 617
e 528 646
e 528 681
e 529 538
e 529 543
e 529 596
e 531 536
e 531 543
e 531 586
e 532 557
e 532 820
e 532 822
e 532 842
e 533 786
e 534 540
e 534 550
e 535 538
e 535 625
e 536 538
e 536 539
e 536 545
e 536 546
e 536 548
e 536 550
e 536 562
e 536 566
e 536 568
e 536 570
e 536 572
e 536 575
e 536 576
e 536 577
e 536 579
e 536 592
e 536 593
e 536 601
e 536 606
e 536 609
e 536 619
e 536 630
e 536 639
e 536 650
e 537 736
e 537 762
e 537 781
e 537 823
e 537 839
e 537 864
e 537 880
e 538 548
e 538 558
e 538 562
e 538 568
e 538 571
e 538 572
e 538 575
e 538 593
e 538 619
e 538 624
e 538 632
e 539 540
e 540 545
e 540 635
e 540 645
e 541 626
e 543 550
e 543 619
e 544 550
e 545 546
e 545 547
e 545 549
e 545 550
e 545 551
e 545 588
e 545 611
e 545 613
e 545 619
e 545 620
e 545 626
e 545 629
e 545 639
e 545 646
e 545 653
e 545 660
e 545 672
e 545 683
e 546 547
e 546 550
e 546 557
e 546 584
e 546 588
e 546 597
e 546 617
e 546 626
e 547 550
e 547 588
e 547 596
e 547 611
e 547 613
e 547 617
e 547 627
e 547 639
e 547 645
e 547 647
e 547 653
e 547 655
e 547 660
e 548 562
e 548 572
e 548 602
e 548 609
e 548 611
e 548 647
e 548 650
e 549 596
e 549 611
e 550 551
e 550 552
e 550 557
e 550 562
e 550 566
e 550 579
e 550 584
e 550 587
e 550 601
e 550 617
e 550 622
e 550 625
e 550 635
e 550 654
e 550 660
e 550 665
e 550 681
e 550 682
e 550 690
e 550 691
e 550 697
e 550 702
e 550 705
e 550 709
e 550 726
e 550 738
e 551 556
e 551 596
e 551 610
e 551 638
e 551 653
e 552 606
e 552 617
e 552 635
e 552 639
e 552 660
e 552 666
e 552 670
e 552 735
e 552 736
e 552 753
e 552 776
e 552 777
e 552 794
e 552 802
e 553 662
e 554 573
e 554 602
e 555 562
e 555 646
e 556 558
e 557 564
e 557 608
e 557 617
e 557 651
e 557 655
e 557 696
e 557 710
e 557 736
e 558 560
e 559 568
e 562 568
e 562 572
e 562 574
e 562 575
e 562 576
e 562 581
e 562 586
e 562 588
e 562 589
e 562 593
e 562 600
e 562 616
e 562 619
e 562 622
e 562 629
e 564 635
e 564 659
e 564 665
e 564 678
e 564 687
e 564 697
e 564 702
e 564 735
e 564 736
e 564 738
e 564 745
e 564 751
e 564 772
e 567 635
e 567 692
e 567 697
e 567 699
e 567 763
e 567 771
e 568 572
e 568 575
e 568 579
e 568 581
e 568 588
e 568 604
e 568 619
e 570 575
e 570 586
e 570 770
e 570 842
e 571 573
e 571 617
e 571 655
e 571 690
e 571 768
e 573 602
e 573 610
e 573 634
e 573 635
e 573 666
e 573 681
e 574 642
e 575 582
e 575 593
e 575 619
e 579 635
e 582 586
e 584 588
e 584 597
e 587 678
e 587 751
e 588 597
e 588 606
e 588 609
e 588 617
e 588 651
e 588 653
e 588 660
e 588 661
e 588 672
e 588 681
e 588 708
e 592 615
e 592 645
e 593 637
e 593 652
e 595 611
e 597 653
e 597 676
e 599 666
e 599 739
e 601 691
e 601 702
e 602 627
e 602 650
e 603 617
e 606 609
e 606 620
e 606 627
e 606 628
e 606 678
e 606 691
e 606 750
e 606 770
e 607 622
e 608 714
e 609 627
e 609 630
e 609 640
e 610 617
e 610 660
e 610 681
e 611 627
e 613 738
e 613 762
e 614 646
e 614 758
e 614 856
e 615 656
e 617 646
e 617 662
e 617 678
e 617 681
e 617 692
e 617 702
e 617 705
e 617 709
e 617 710
e 617 727
e 617 735
e 617 736
e 617 750
e 617 751
e 617 771
e 618 675
e 622 625
e 623 666
e 624 634
e 624 636
e 626 655
e 626 675
e 627 640
e 627 682
e 629 661
e 629 665
e 630 663
e 633 636
e 635 646
e 635 659
e 635 666
e 635 668
e 635 677
e 635 681
e 635 690
e 635 698
e 635 702
e 635 705
e 635 706
e 635 707
e 635 710
e 635 714
e 635 718
e 635 723
e 635 725
e 635 735
e 635 736
e 635 738
e 635 755
e 635 762
e 635 769
e 635 777
e 635 780
e 635 786
e 635 787
e 637 647
e 637 660
e 637 679
e 637 687
e 637 697
e 637 748
e 638 665
e 639 645
e 639 660
e 641 889
e 643 769
e 643 771
e 644 692
e 644 729
e 645 655
e 645 668
e 645 678
e 646 655
e 646 666
e 646 690
e 646 697
e 646 707
e 646 709
e 646 723
e 646 736
e 646 749
e 646 763
e 646 764
e 646 800
e 648 789
e 649 669
e 649 705
e 651 666
e 651 674
e 652 660
e 652 673
e 652 694
e 652 717
e 652 763
e 652 834
e 654 671
e 654 697
e 654 723
e 657 679
e 657 710
e 657 734
e 658 709
e 659 660
e 659 679
e 659 690
e 659 712
e 659 736
e 659 778
e 659 791
e 659 818
e 659 841
e 659 845
e 659 853
e 659 856
e 660 673
e 660 683
e 660 691
e 660 710
e 660 735
e 660 744
e 660 746
e 664 672
e 665 736
e 665 758
e 665 813
e 666 668
e 666 678
e 666 702
e 666 704
e 666 710
e 666 731
e 666 736
e 666 754
e 666 762
e 666 784
e 667 683
e 668 670
e 668 678
e 668 681
e 668 717
e 668 720
e 668 736
e 668 745
e 668 750
e 668 802
e 668 819
e 669 723
e 669 728
e 670 720
e 670 738
e 670 762
e 670 771
e 671 693
e 671 735
e 673 697
e 673 702
e 673 729
e 673 776
e 673 795
e 677 681
e 677 691
e 677 697
e 677 722
e 678 706
e 678 718
e 678 736
e 678 753
e 680 839
e 684 690
e 686 738
e 687 688
e 687 690
e 687 697
e 687 709
e 687 743
e 687 751
e 687 829
e 687 851
e 688 884
e 689 736
e 690 709
e 690 757
e 690 762
e 690 763
e 690 769
e 690 773
e 690 807
e 690 817
e 690 818
e 690 822
e 690 832
e 690 845
e 690 853
e 690 856
e 691 692
e 691 705
e 691 735
e 691 756
e 691 770
e 691 812
e 692 707
e 692 736
e 692 750
e 692 752
e 692 784
e 692 790
e 692 795
e 692 804
e 692 817
e 693 743
e 693 769
e 693 825
e 693 832
e 693 839
e 693 853
e 694 743
e 695 738
e 697 710
e 697 714
e 697 720
e 697 736
e 697 738
e 697 750
e 697 758
e 697 763
e 697 769
e 697 777
e 697 784
e 697 802
e 697 805
e 697 816
e 697 817
e 697 818
e 697 819
e 697 829
e 697 832
e 697 837
e 697 846
e 697 852
e 699 700
e 699 779
e 701 723
e 702 708
e 702 714
e 702 738
e 703 709
e 705 710
e 706 738
e 707 709
e 707 727
e 707 736
e 707 762
e 707 763
e 707 781
e 707 804
e 707 822
e 707 839
e 707 842
e 707 845
e 707 852
e 707 856
e 707 860
e 707 877
e 708 719
e 709 724
e 709 736
e 709 750
e 709 763
e 709 769
e 709 773
e 709 792
e 709 802
e 709 804
e 709 807
e 710 721
e 710 724
e 710 725
e 711 819
e 712 713
e 715 771
e 715 783
e 716 736
e 716 820
e 717 724
e 717 773
e 717 776
e 718 736
e 718 769
e 719 724
e 722 856
e 724 745
e 725 791
e 725 826
e 725 836
e 729 761
e 729 781
e 729 791
e 730 734
e 732 750
e 733 740
e 735 787
e 736 738
e 736 749
e 736 750
e 736 753
e 736 762
e 736 763
e 736 764
e 736 769
e 736 773
e 736 776
e 736 777
e 736 780
e 736 786
e 736 789
e 736 801
e 736 803
e 736 804
e 736 816
e 736 822
e 736 837
e 736 843
e 737 856
e 737 878
e 738 750
e 738 753
e 738 771
e 738 802
e 738 804
e 738 827
e 740 763
e 740 803
e 740 807
e 740 846
e 742 750
e 742 762
e 742 773
e 742 777
e 742 831
e 742 835
e 743 885
e 747 816
e 747 827
e 749 760
e 750 762
e 750 763
e 750 777
e 750 791
e 750 801
e 750 802
e 750 804
e 750 806
e 750 807
e 750 816
e 750 825
e 751 791
e 751 798
e 753 762
e 753 763
e 753 777
e 753 829
e 755 803
e 757 758
e 757 807
e 757 837
e 757 840
e 757 841
e 757 856
e 759 781
e 761 784
e 761 795
e 762 763
e 762 765
e 762 768
e 762 769
e 762 773
e 762 774
e 762 777
e 762 781
e 762 785
e 762 800
e 762 801
e 762 802
e 762 807
e 762 816
e 762 819
e 762 822
e 762 823
e 762 827
e 762 832
e 762 833
e 762 839
e 762 841
e 762 843
e 762 845
e 762 846
e 762 853
e 762 855
e 762 856
e 762 874
e 763 769
e 763 803
e 763 815
e 764 784
e 765 778
e 765 803
e 765 828
e 765 839
e 765 859
e 765 867
e 765 873
e 766 807
e 767 819
e 767 844
e 768 769
e 768 822
e 769 771
e 769 781
e 769 796
e 769 803
e 769 807
e 769 822
e 769 829
e 769 837
e 769 840
e 771 807
e 771 813
e 771 838
e 772 830
e 773 781
e 773 840
e 774 815
e 774 825
e 775 807
e 776 777
e 776 816
e 776 878
e 777 802
e 777 829
e 778 839
e 779 838
e 780 781
e 780 816
e 780 819
e 781 788
e 781 807
e 781 817
e 781 822
e 781 841
e 781 843
e 781 853
e 781 856
e 782 807
e 784 791
e 784 805
e 784 807
e 784 809
e 785 838
e 785 845
e 785 856
e 785 858
e 785 864
e 785 873
e 785 875
e 786 856
e 786 864
e 786 874
e 788 803
e 789 829
e 794 819
e 795 803
e 797 798
e 799 853
e 799 864
e 800 829
e 800 856
e 801 803
e 801 807
e 801 840
e 802 829
e 803 804
e 803 818
e 803 820
e 803 823
e 803 826
e 803 833
e 803 839
e 803 865
e 804 816
e 804 821
e 805 859
e 806 807
e 806 831
e 807 814
e 807 819
e 807 840
e 808 809
e 816 818
e 818 828
e 818 859
e 819 820
e 819 848
e 819 856
e 820 847
e 820 859
e 822 862
e 822 863
e 822 864
e 823 840
e 823 843
e 824 845
e 824 888
e 826 840
e 826 853
e 829 840
e 829 847
e 829 849
e 829 851
e 832 840
e 832 843
e 832 856
e 839 842
e 839 843
e 839 853
e 839 854
e 839 855
e 839 858
e 839 860
e 839 861
e 841 847
e 841 850
e 841 853
e 841 855
e 841 856
e 841 858
e 841 859
e 841 865
e 841 882
e 843 853
e 843 854
e 845 869
e 845 879
e 847 881
e 850 887
e 851 870
e 852 853
e 852 857
e 852 872
e 853 854
e 853 856
e 853 866
e 853 872
e 856 858
e 856 859
e 856 864
e 856 866
e 856 874
e 856 876
e 856 882
e 856 883
e 859 869
e 859 873
e 861 872
e 862 882
e 864 870
e 864 874
e 884 885
